0
Node Left Objective IInf Best_Integer Best_Bound ItCnt Gap
0 0 0.0000 3 0.0000 106
0 0 0.0000 2 Cuts:10 111
0 0 0 0.0000 Cuts:6 112 0.00%
0 0 cutoff 0.0000 0.0000 112 0.00% 0
CPXPARAM_MIP_Cuts_Gomory-Disjunctive-LiftProj-MIRCut:Gomory 0
CPXPARAM_MIP_Cuts_Gomory-Disjunctive-LiftProj-MIRCut:Disjunctive 3
CPXPARAM_MIP_Cuts_Gomory-Disjunctive-LiftProj-MIRCut:LiftProj 4
CPXPARAM_MIP_Cuts_Gomory-Disjunctive-LiftProj-MIRCut:MIRCut 1
1
Node Left Objective IInf Best_Integer Best_Bound ItCnt Gap
0 0 0.0000 7 0.0000 113
0 2 0.0000 7 0.0000 113 0 0
CPXPARAM_MIP_Cuts_Gomory-Disjunctive-LiftProj-MIRCut:Gomory 0
CPXPARAM_MIP_Cuts_Gomory-Disjunctive-LiftProj-MIRCut:Disjunctive 0
CPXPARAM_MIP_Cuts_Gomory-Disjunctive-LiftProj-MIRCut:LiftProj 0
CPXPARAM_MIP_Cuts_Gomory-Disjunctive-LiftProj-MIRCut:MIRCut 0
2
Node Left Objective IInf Best_Integer Best_Bound ItCnt Gap
0 0 0 -0.0000 -0.0000 101 -5.88% 0
CPXPARAM_MIP_Cuts_Gomory-Disjunctive-LiftProj-MIRCut:Gomory 0
CPXPARAM_MIP_Cuts_Gomory-Disjunctive-LiftProj-MIRCut:Disjunctive 0
CPXPARAM_MIP_Cuts_Gomory-Disjunctive-LiftProj-MIRCut:LiftProj 0
CPXPARAM_MIP_Cuts_Gomory-Disjunctive-LiftProj-MIRCut:MIRCut 0
3
Node Left Objective IInf Best_Integer Best_Bound ItCnt Gap
0 0 0 -0.0000 -0.0000 76 99.83% 0
CPXPARAM_MIP_Cuts_Gomory-Disjunctive-LiftProj-MIRCut:Gomory 0
CPXPARAM_MIP_Cuts_Gomory-Disjunctive-LiftProj-MIRCut:Disjunctive 0
CPXPARAM_MIP_Cuts_Gomory-Disjunctive-LiftProj-MIRCut:LiftProj 0
CPXPARAM_MIP_Cuts_Gomory-Disjunctive-LiftProj-MIRCut:MIRCut 0
4
Node Left Objective IInf Best_Integer Best_Bound ItCnt Gap
0 0 0.0000 5 0.0000 109
0 0 0.0000 3 Cuts:9 137
0 0 0.0000 1 Cuts:5 138
0 2 0.0000 1 0.0000 138 0 0
CPXPARAM_MIP_Cuts_Gomory-Disjunctive-LiftProj-MIRCut:Gomory 2
CPXPARAM_MIP_Cuts_Gomory-Disjunctive-LiftProj-MIRCut:Disjunctive 1
CPXPARAM_MIP_Cuts_Gomory-Disjunctive-LiftProj-MIRCut:LiftProj 0
CPXPARAM_MIP_Cuts_Gomory-Disjunctive-LiftProj-MIRCut:MIRCut 0
5
Node Left Objective IInf Best_Integer Best_Bound ItCnt Gap
0 0 0 -0.0000 -0.0000 118 -14.28% 0
CPXPARAM_MIP_Cuts_Gomory-Disjunctive-LiftProj-MIRCut:Gomory 0
CPXPARAM_MIP_Cuts_Gomory-Disjunctive-LiftProj-MIRCut:Disjunctive 0
CPXPARAM_MIP_Cuts_Gomory-Disjunctive-LiftProj-MIRCut:LiftProj 0
CPXPARAM_MIP_Cuts_Gomory-Disjunctive-LiftProj-MIRCut:MIRCut 0
6
Node Left Objective IInf Best_Integer Best_Bound ItCnt Gap
0 0 0 0.0000 0.0000 85 -10.00% 0
CPXPARAM_MIP_Cuts_Gomory-Disjunctive-LiftProj-MIRCut:Gomory 0
CPXPARAM_MIP_Cuts_Gomory-Disjunctive-LiftProj-MIRCut:Disjunctive 0
CPXPARAM_MIP_Cuts_Gomory-Disjunctive-LiftProj-MIRCut:LiftProj 0
CPXPARAM_MIP_Cuts_Gomory-Disjunctive-LiftProj-MIRCut:MIRCut 0
7
Node Left Objective IInf Best_Integer Best_Bound ItCnt Gap
0 0 0 0.0000 0.0000 72 5.88% 0
CPXPARAM_MIP_Cuts_Gomory-Disjunctive-LiftProj-MIRCut:Gomory 0
CPXPARAM_MIP_Cuts_Gomory-Disjunctive-LiftProj-MIRCut:Disjunctive 0
CPXPARAM_MIP_Cuts_Gomory-Disjunctive-LiftProj-MIRCut:LiftProj 0
CPXPARAM_MIP_Cuts_Gomory-Disjunctive-LiftProj-MIRCut:MIRCut 0
8
Node Left Objective IInf Best_Integer Best_Bound ItCnt Gap
0 0 -0.0000 5 -0.0000 123
0 0 -0.0000 3 Cuts:15 163
0 2 -0.0000 3 -0.0000 163 0 0
CPXPARAM_MIP_Cuts_Gomory-Disjunctive-LiftProj-MIRCut:Gomory 4
CPXPARAM_MIP_Cuts_Gomory-Disjunctive-LiftProj-MIRCut:Disjunctive 1
CPXPARAM_MIP_Cuts_Gomory-Disjunctive-LiftProj-MIRCut:LiftProj 0
CPXPARAM_MIP_Cuts_Gomory-Disjunctive-LiftProj-MIRCut:MIRCut 0
9
Node Left Objective IInf Best_Integer Best_Bound ItCnt Gap
0 0 -0.0000 2 -0.0000 113
0 2 -0.0000 8 -0.0000 132 0 0
CPXPARAM_MIP_Cuts_Gomory-Disjunctive-LiftProj-MIRCut:Gomory 0
CPXPARAM_MIP_Cuts_Gomory-Disjunctive-LiftProj-MIRCut:Disjunctive 0
CPXPARAM_MIP_Cuts_Gomory-Disjunctive-LiftProj-MIRCut:LiftProj 0
CPXPARAM_MIP_Cuts_Gomory-Disjunctive-LiftProj-MIRCut:MIRCut 0
10
Node Left Objective IInf Best_Integer Best_Bound ItCnt Gap
0 0 0.0000 1 0.0000 94
0 0 0 0.0000 LiftProj:1 103 0.00%
0 0 cutoff 0.0000 0.0000 103 0.00% 0
CPXPARAM_MIP_Cuts_Gomory-Disjunctive-LiftProj-MIRCut:Gomory 0
CPXPARAM_MIP_Cuts_Gomory-Disjunctive-LiftProj-MIRCut:Disjunctive 0
CPXPARAM_MIP_Cuts_Gomory-Disjunctive-LiftProj-MIRCut:LiftProj 0
CPXPARAM_MIP_Cuts_Gomory-Disjunctive-LiftProj-MIRCut:MIRCut 0
11
Node Left Objective IInf Best_Integer Best_Bound ItCnt Gap
0 0 0 0.0000 0.0000 88 -24.98% 0
CPXPARAM_MIP_Cuts_Gomory-Disjunctive-LiftProj-MIRCut:Gomory 0
CPXPARAM_MIP_Cuts_Gomory-Disjunctive-LiftProj-MIRCut:Disjunctive 0
CPXPARAM_MIP_Cuts_Gomory-Disjunctive-LiftProj-MIRCut:LiftProj 0
CPXPARAM_MIP_Cuts_Gomory-Disjunctive-LiftProj-MIRCut:MIRCut 0
12
Node Left Objective IInf Best_Integer Best_Bound ItCnt Gap
0 0 0.0000 3 0.0000 106
0 0 0.0000 2 Cuts:9 147
0 0 0 0.0000 Cuts:3 148 -19.99%
0 0 cutoff 0.0000 0.0000 148 -19.99% 0
CPXPARAM_MIP_Cuts_Gomory-Disjunctive-LiftProj-MIRCut:Gomory 1
CPXPARAM_MIP_Cuts_Gomory-Disjunctive-LiftProj-MIRCut:Disjunctive 1
CPXPARAM_MIP_Cuts_Gomory-Disjunctive-LiftProj-MIRCut:LiftProj 0
CPXPARAM_MIP_Cuts_Gomory-Disjunctive-LiftProj-MIRCut:MIRCut 0
13
Node Left Objective IInf Best_Integer Best_Bound ItCnt Gap
0 0 -0.0000 1 -0.0000 102
0 0 0 -0.0000 -0.0000 115 -5.00%
0 0 -0.0000 0 -0.0000 -0.0000 115 -5.00%
CPXPARAM_MIP_Cuts_Gomory-Disjunctive-LiftProj-MIRCut:Gomory 0
CPXPARAM_MIP_Cuts_Gomory-Disjunctive-LiftProj-MIRCut:Disjunctive 0
CPXPARAM_MIP_Cuts_Gomory-Disjunctive-LiftProj-MIRCut:LiftProj 0
CPXPARAM_MIP_Cuts_Gomory-Disjunctive-LiftProj-MIRCut:MIRCut 0
14
Node Left Objective IInf Best_Integer Best_Bound ItCnt Gap
0 0 -0.0000 1 -0.0000 78
0 0 0 -0.0000 -0.0000 86 -15.38%
0 0 -0.0000 0 -0.0000 -0.0000 86 -15.38%
CPXPARAM_MIP_Cuts_Gomory-Disjunctive-LiftProj-MIRCut:Gomory 0
CPXPARAM_MIP_Cuts_Gomory-Disjunctive-LiftProj-MIRCut:Disjunctive 0
CPXPARAM_MIP_Cuts_Gomory-Disjunctive-LiftProj-MIRCut:LiftProj 0
CPXPARAM_MIP_Cuts_Gomory-Disjunctive-LiftProj-MIRCut:MIRCut 0
15
Node Left Objective IInf Best_Integer Best_Bound ItCnt Gap
0 0 0 0.0000 0.0000 79 10.00% 0
CPXPARAM_MIP_Cuts_Gomory-Disjunctive-LiftProj-MIRCut:Gomory 0
CPXPARAM_MIP_Cuts_Gomory-Disjunctive-LiftProj-MIRCut:Disjunctive 0
CPXPARAM_MIP_Cuts_Gomory-Disjunctive-LiftProj-MIRCut:LiftProj 0
CPXPARAM_MIP_Cuts_Gomory-Disjunctive-LiftProj-MIRCut:MIRCut 0
16
Node Left Objective IInf Best_Integer Best_Bound ItCnt Gap
0 0 -0.0000 2 -0.0000 123
0 0 0 -0.0000 Cuts:4 142 7.14%
0 0 cutoff -0.0000 -0.0000 142 7.14% 0
CPXPARAM_MIP_Cuts_Gomory-Disjunctive-LiftProj-MIRCut:Gomory 0
CPXPARAM_MIP_Cuts_Gomory-Disjunctive-LiftProj-MIRCut:Disjunctive 1
CPXPARAM_MIP_Cuts_Gomory-Disjunctive-LiftProj-MIRCut:LiftProj 0
CPXPARAM_MIP_Cuts_Gomory-Disjunctive-LiftProj-MIRCut:MIRCut 1
17
Node Left Objective IInf Best_Integer Best_Bound ItCnt Gap
0 0 0 -0.0000 -0.0000 95 -11.76% 0
CPXPARAM_MIP_Cuts_Gomory-Disjunctive-LiftProj-MIRCut:Gomory 0
CPXPARAM_MIP_Cuts_Gomory-Disjunctive-LiftProj-MIRCut:Disjunctive 0
CPXPARAM_MIP_Cuts_Gomory-Disjunctive-LiftProj-MIRCut:LiftProj 0
CPXPARAM_MIP_Cuts_Gomory-Disjunctive-LiftProj-MIRCut:MIRCut 0
18
Node Left Objective IInf Best_Integer Best_Bound ItCnt Gap
0 0 0 -0.0000 -0.0000 72 21.42% 0
CPXPARAM_MIP_Cuts_Gomory-Disjunctive-LiftProj-MIRCut:Gomory 0
CPXPARAM_MIP_Cuts_Gomory-Disjunctive-LiftProj-MIRCut:Disjunctive 0
CPXPARAM_MIP_Cuts_Gomory-Disjunctive-LiftProj-MIRCut:LiftProj 0
CPXPARAM_MIP_Cuts_Gomory-Disjunctive-LiftProj-MIRCut:MIRCut 0
19
Node Left Objective IInf Best_Integer Best_Bound ItCnt Gap
0 0 0 0.0000 0.0000 85 49.96% 0
CPXPARAM_MIP_Cuts_Gomory-Disjunctive-LiftProj-MIRCut:Gomory 0
CPXPARAM_MIP_Cuts_Gomory-Disjunctive-LiftProj-MIRCut:Disjunctive 0
CPXPARAM_MIP_Cuts_Gomory-Disjunctive-LiftProj-MIRCut:LiftProj 0
CPXPARAM_MIP_Cuts_Gomory-Disjunctive-LiftProj-MIRCut:MIRCut 0
20
Node Left Objective IInf Best_Integer Best_Bound ItCnt Gap
0 0 0.0000 3 0.0000 115
0 2 0.0000 2 0.0000 136 0 0
CPXPARAM_MIP_Cuts_Gomory-Disjunctive-LiftProj-MIRCut:Gomory 0
CPXPARAM_MIP_Cuts_Gomory-Disjunctive-LiftProj-MIRCut:Disjunctive 0
CPXPARAM_MIP_Cuts_Gomory-Disjunctive-LiftProj-MIRCut:LiftProj 0
CPXPARAM_MIP_Cuts_Gomory-Disjunctive-LiftProj-MIRCut:MIRCut 0
21
Node Left Objective IInf Best_Integer Best_Bound ItCnt Gap
0 0 -0.0000 2 -0.0000 114
0 2 0.0000 8 0.0000 131 0 0
CPXPARAM_MIP_Cuts_Gomory-Disjunctive-LiftProj-MIRCut:Gomory 0
CPXPARAM_MIP_Cuts_Gomory-Disjunctive-LiftProj-MIRCut:Disjunctive 0
CPXPARAM_MIP_Cuts_Gomory-Disjunctive-LiftProj-MIRCut:LiftProj 0
CPXPARAM_MIP_Cuts_Gomory-Disjunctive-LiftProj-MIRCut:MIRCut 0
22
Node Left Objective IInf Best_Integer Best_Bound ItCnt Gap
0 0 0 0.0000 0.0000 68 0.00% 0
CPXPARAM_MIP_Cuts_Gomory-Disjunctive-LiftProj-MIRCut:Gomory 0
CPXPARAM_MIP_Cuts_Gomory-Disjunctive-LiftProj-MIRCut:Disjunctive 0
CPXPARAM_MIP_Cuts_Gomory-Disjunctive-LiftProj-MIRCut:LiftProj 0
CPXPARAM_MIP_Cuts_Gomory-Disjunctive-LiftProj-MIRCut:MIRCut 0
23
Node Left Objective IInf Best_Integer Best_Bound ItCnt Gap
0 0 0 0.0000 0.0000 71 2.78% 0
CPXPARAM_MIP_Cuts_Gomory-Disjunctive-LiftProj-MIRCut:Gomory 0
CPXPARAM_MIP_Cuts_Gomory-Disjunctive-LiftProj-MIRCut:Disjunctive 0
CPXPARAM_MIP_Cuts_Gomory-Disjunctive-LiftProj-MIRCut:LiftProj 0
CPXPARAM_MIP_Cuts_Gomory-Disjunctive-LiftProj-MIRCut:MIRCut 0
24
Node Left Objective IInf Best_Integer Best_Bound ItCnt Gap
0 0 0.0000 2 0.0000 120
0 0 0.0000 2 Cuts:4 123
0 0 0 0.0000 Cuts:2 124 0.00%
0 0 cutoff 0.0000 0.0000 124 0.00% 0
CPXPARAM_MIP_Cuts_Gomory-Disjunctive-LiftProj-MIRCut:Gomory 0
CPXPARAM_MIP_Cuts_Gomory-Disjunctive-LiftProj-MIRCut:Disjunctive 2
CPXPARAM_MIP_Cuts_Gomory-Disjunctive-LiftProj-MIRCut:LiftProj 2
CPXPARAM_MIP_Cuts_Gomory-Disjunctive-LiftProj-MIRCut:MIRCut 0
25
Node Left Objective IInf Best_Integer Best_Bound ItCnt Gap
0 0 0.0000 4 0.0000 151
0 2 0.0000 4 0.0000 151 0 0
CPXPARAM_MIP_Cuts_Gomory-Disjunctive-LiftProj-MIRCut:Gomory 0
CPXPARAM_MIP_Cuts_Gomory-Disjunctive-LiftProj-MIRCut:Disjunctive 0
CPXPARAM_MIP_Cuts_Gomory-Disjunctive-LiftProj-MIRCut:LiftProj 0
CPXPARAM_MIP_Cuts_Gomory-Disjunctive-LiftProj-MIRCut:MIRCut 0
26
Node Left Objective IInf Best_Integer Best_Bound ItCnt Gap
0 0 0 0.0000 0.0000 70 0.00% 0
CPXPARAM_MIP_Cuts_Gomory-Disjunctive-LiftProj-MIRCut:Gomory 0
CPXPARAM_MIP_Cuts_Gomory-Disjunctive-LiftProj-MIRCut:Disjunctive 0
CPXPARAM_MIP_Cuts_Gomory-Disjunctive-LiftProj-MIRCut:LiftProj 0
CPXPARAM_MIP_Cuts_Gomory-Disjunctive-LiftProj-MIRCut:MIRCut 0
27
Node Left Objective IInf Best_Integer Best_Bound ItCnt Gap
0 0 0 -0.0000 -0.0000 71 0.00% 0
CPXPARAM_MIP_Cuts_Gomory-Disjunctive-LiftProj-MIRCut:Gomory 0
CPXPARAM_MIP_Cuts_Gomory-Disjunctive-LiftProj-MIRCut:Disjunctive 0
CPXPARAM_MIP_Cuts_Gomory-Disjunctive-LiftProj-MIRCut:LiftProj 0
CPXPARAM_MIP_Cuts_Gomory-Disjunctive-LiftProj-MIRCut:MIRCut 0
28
Node Left Objective IInf Best_Integer Best_Bound ItCnt Gap
0 0 0.0000 2 0.0000 121
0 0 0.0000 2 LiftProj:1 124
0 0 0.0000 2 Disjcuts:1 126
0 2 0.0000 2 0.0000 126 0 0
CPXPARAM_MIP_Cuts_Gomory-Disjunctive-LiftProj-MIRCut:Gomory 0
CPXPARAM_MIP_Cuts_Gomory-Disjunctive-LiftProj-MIRCut:Disjunctive 1
CPXPARAM_MIP_Cuts_Gomory-Disjunctive-LiftProj-MIRCut:LiftProj 0
CPXPARAM_MIP_Cuts_Gomory-Disjunctive-LiftProj-MIRCut:MIRCut 1
29
Node Left Objective IInf Best_Integer Best_Bound ItCnt Gap
0 0 -0.0000 4 -0.0000 126
0 2 -0.0000 9 -0.0000 149 0 0
CPXPARAM_MIP_Cuts_Gomory-Disjunctive-LiftProj-MIRCut:Gomory 0
CPXPARAM_MIP_Cuts_Gomory-Disjunctive-LiftProj-MIRCut:Disjunctive 0
CPXPARAM_MIP_Cuts_Gomory-Disjunctive-LiftProj-MIRCut:LiftProj 0
CPXPARAM_MIP_Cuts_Gomory-Disjunctive-LiftProj-MIRCut:MIRCut 0
30
Node Left Objective IInf Best_Integer Best_Bound ItCnt Gap
0 0 0 0.0000 0.0000 82 -20.00% 0
CPXPARAM_MIP_Cuts_Gomory-Disjunctive-LiftProj-MIRCut:Gomory 0
CPXPARAM_MIP_Cuts_Gomory-Disjunctive-LiftProj-MIRCut:Disjunctive 0
CPXPARAM_MIP_Cuts_Gomory-Disjunctive-LiftProj-MIRCut:LiftProj 0
CPXPARAM_MIP_Cuts_Gomory-Disjunctive-LiftProj-MIRCut:MIRCut 0
31
Node Left Objective IInf Best_Integer Best_Bound ItCnt Gap
0 0 0 -0.0000 -0.0000 77 -39.97% 0
CPXPARAM_MIP_Cuts_Gomory-Disjunctive-LiftProj-MIRCut:Gomory 0
CPXPARAM_MIP_Cuts_Gomory-Disjunctive-LiftProj-MIRCut:Disjunctive 0
CPXPARAM_MIP_Cuts_Gomory-Disjunctive-LiftProj-MIRCut:LiftProj 0
CPXPARAM_MIP_Cuts_Gomory-Disjunctive-LiftProj-MIRCut:MIRCut 0
32
Node Left Objective IInf Best_Integer Best_Bound ItCnt Gap
0 0 0.0000 5 0.0000 147
0 0 0.0000 4 Cuts:2 180
0 0 0.0000 4 Cuts:10 194
0 0 0.0000 2 Cuts:14 208
0 2 0.0000 3 0.0000 208 0 0
CPXPARAM_MIP_Cuts_Gomory-Disjunctive-LiftProj-MIRCut:Gomory 0
CPXPARAM_MIP_Cuts_Gomory-Disjunctive-LiftProj-MIRCut:Disjunctive 1
CPXPARAM_MIP_Cuts_Gomory-Disjunctive-LiftProj-MIRCut:LiftProj 0
CPXPARAM_MIP_Cuts_Gomory-Disjunctive-LiftProj-MIRCut:MIRCut 1
33
Node Left Objective IInf Best_Integer Best_Bound ItCnt Gap
0 0 -0.0000 1 -0.0000 101
0 2 -0.0000 1 -0.0000 101 0 0
CPXPARAM_MIP_Cuts_Gomory-Disjunctive-LiftProj-MIRCut:Gomory 0
CPXPARAM_MIP_Cuts_Gomory-Disjunctive-LiftProj-MIRCut:Disjunctive 0
CPXPARAM_MIP_Cuts_Gomory-Disjunctive-LiftProj-MIRCut:LiftProj 0
CPXPARAM_MIP_Cuts_Gomory-Disjunctive-LiftProj-MIRCut:MIRCut 0
34
Node Left Objective IInf Best_Integer Best_Bound ItCnt Gap
0 0 0 0.0000 0.0000 75 0.00% 0
CPXPARAM_MIP_Cuts_Gomory-Disjunctive-LiftProj-MIRCut:Gomory 0
CPXPARAM_MIP_Cuts_Gomory-Disjunctive-LiftProj-MIRCut:Disjunctive 0
CPXPARAM_MIP_Cuts_Gomory-Disjunctive-LiftProj-MIRCut:LiftProj 0
CPXPARAM_MIP_Cuts_Gomory-Disjunctive-LiftProj-MIRCut:MIRCut 0
35
Node Left Objective IInf Best_Integer Best_Bound ItCnt Gap
0 0 0 0.0000 0.0000 81 --- 0
CPXPARAM_MIP_Cuts_Gomory-Disjunctive-LiftProj-MIRCut:Gomory 0
CPXPARAM_MIP_Cuts_Gomory-Disjunctive-LiftProj-MIRCut:Disjunctive 0
CPXPARAM_MIP_Cuts_Gomory-Disjunctive-LiftProj-MIRCut:LiftProj 0
CPXPARAM_MIP_Cuts_Gomory-Disjunctive-LiftProj-MIRCut:MIRCut 0
36
Node Left Objective IInf Best_Integer Best_Bound ItCnt Gap
0 0 -0.0000 4 -0.0000 118
0 0 0 -0.0000 Cuts:5 144 0.00%
0 0 cutoff -0.0000 -0.0000 144 0.00% 0
CPXPARAM_MIP_Cuts_Gomory-Disjunctive-LiftProj-MIRCut:Gomory 0
CPXPARAM_MIP_Cuts_Gomory-Disjunctive-LiftProj-MIRCut:Disjunctive 0
CPXPARAM_MIP_Cuts_Gomory-Disjunctive-LiftProj-MIRCut:LiftProj 0
CPXPARAM_MIP_Cuts_Gomory-Disjunctive-LiftProj-MIRCut:MIRCut 0
37
Node Left Objective IInf Best_Integer Best_Bound ItCnt Gap
0 0 0 0.0000 0.0000 118 49.96% 0
CPXPARAM_MIP_Cuts_Gomory-Disjunctive-LiftProj-MIRCut:Gomory 0
CPXPARAM_MIP_Cuts_Gomory-Disjunctive-LiftProj-MIRCut:Disjunctive 0
CPXPARAM_MIP_Cuts_Gomory-Disjunctive-LiftProj-MIRCut:LiftProj 0
CPXPARAM_MIP_Cuts_Gomory-Disjunctive-LiftProj-MIRCut:MIRCut 0
38
Node Left Objective IInf Best_Integer Best_Bound ItCnt Gap
0 0 0 0.0000 0.0000 72 6.25% 0
CPXPARAM_MIP_Cuts_Gomory-Disjunctive-LiftProj-MIRCut:Gomory 0
CPXPARAM_MIP_Cuts_Gomory-Disjunctive-LiftProj-MIRCut:Disjunctive 0
CPXPARAM_MIP_Cuts_Gomory-Disjunctive-LiftProj-MIRCut:LiftProj 0
CPXPARAM_MIP_Cuts_Gomory-Disjunctive-LiftProj-MIRCut:MIRCut 0
39
Node Left Objective IInf Best_Integer Best_Bound ItCnt Gap
0 0 0 0.0000 0.0000 81 --- 0
CPXPARAM_MIP_Cuts_Gomory-Disjunctive-LiftProj-MIRCut:Gomory 0
CPXPARAM_MIP_Cuts_Gomory-Disjunctive-LiftProj-MIRCut:Disjunctive 0
CPXPARAM_MIP_Cuts_Gomory-Disjunctive-LiftProj-MIRCut:LiftProj 0
CPXPARAM_MIP_Cuts_Gomory-Disjunctive-LiftProj-MIRCut:MIRCut 0
